50
11381

852 841
263 265
24 647
499 14
157 279
802 874
276 375
921 959
404 676
506 366
209 201
201 316
308 860
943 514
653 713
308 973
313 394
114 10
101 599
370 253
335 121
402 896
945 556
371 147
834 944
886 843
58 76
544 868
498 931
593 550
49 395
888 945
462 153
380 315
546 763
47 212
563 620
632 84
582 39
350 899
813 921
639 664
408 580
951 449
433 23
722 391
824 508
833 910
370 283
858 473
